NAME : single
TYPE : ATSP
DIMENSION : 5
EDGE_WEIGHT_TYPE : EXPLICIT
EDGE_WEIGHT_FORMAT : FULL_MATRIX
EDGE_WEIGHT_SECTION
0 652 577 252 96 
0 0 73 303 317 
0 73 0 252 259 
0 303 252 0 274 
0 317 259 274 0 
EOF